CPXPARAM_MIP_Cuts_Cliques#P13#0#CPXPARAM_MIP_Cuts_MIRCut#P20#1#3.099749#0.473543
CPXPARAM_MIP_Cuts_Cliques#P13#2#CPXPARAM_MIP_Cuts_MIRCut#P20#1#6.545869#1.000000
CPXPARAM_MIP_Cuts_Cliques#P13#2#CPXPARAM_MIP_Cuts_MIRCut#P20#2#2.694707#0.411665
CPXPARAM_MIP_Cuts_Cliques#P13#3#CPXPARAM_MIP_Cuts_MIRCut#P20#1#4.029299#0.615548
